
Gurobi 11.0.1 (win64) logging started Tue Mar 26 04:57:12 2024

Set parameter LogFile to value "C:\Projetos\Job_Rotation_Algorithms\Outputs\GurobiLogs\gurobi_log-output-6_hes-c102-CostaMirallesModel-NoExtraConstraint-2.log"
Gurobi Optimizer version 11.0.1 build v11.0.1rc0 (win64 - Windows 10.0 (19045.2))

CPU model: 11th Gen Intel(R) Core(TM) i7-1165G7 @ 2.80GHz, instruction set [SSE2|AVX|AVX2|AVX512]
Thread count: 4 physical cores, 8 logical processors, using up to 1 threads

WLS license 901039 - registered to Bitka Analytics
Optimize a model with 480 rows, 943 columns and 7607 nonzeros
Model fingerprint: 0xcf3a7c14
Variable types: 2 continuous, 941 integer (941 binary)
Coefficient statistics:
  Matrix range     [1e+00, 1e+02]
  Objective range  [1e+00, 1e+00]
  Bounds range     [1e+00, 2e+02]
  RHS range        [1e+00, 2e+02]
Presolve removed 165 rows and 153 columns
Presolve time: 0.05s
Presolved: 315 rows, 790 columns, 4555 nonzeros
Variable types: 0 continuous, 790 integer (789 binary)

Root relaxation: objective 5.600000e+01, 312 iterations, 0.02 seconds (0.00 work units)

    Nodes    |    Current Node    |     Objective Bounds      |     Work
 Expl Unexpl |  Obj  Depth IntInf | Incumbent    BestBd   Gap | It/Node Time

     0     0   56.00000    0   17          -   56.00000      -     -    0s
     0     0   56.00000    0  155          -   56.00000      -     -    0s
     0     0   56.00000    0   81          -   56.00000      -     -    0s
     0     0   56.00000    0   26          -   56.00000      -     -    0s
     0     0   56.00000    0   50          -   56.00000      -     -    0s
     0     0   56.00000    0   26          -   56.00000      -     -    0s
     0     0   56.00000    0   58          -   56.00000      -     -    0s
     0     0   56.00000    0   45          -   56.00000      -     -    0s
     0     0   56.00000    0   26          -   56.00000      -     -    0s
     0     2   56.00000    0   26          -   56.00000      -     -    0s
H  369    95                      41.0000000   56.00000  36.6%  61.3    1s
H  369    95                      42.0000000   56.00000  33.3%  61.3    1s
H  396    91                      43.0000000   56.00000  30.2%  59.8    1s
H  426    87                      44.0000000   56.00000  27.3%  61.8    1s
H  531    99                      45.0000000   56.00000  24.4%  69.3    1s
*  640    93              29      46.0000000   56.00000  21.7%  71.7    1s
H  663    77                      47.0000000   56.00000  19.1%  73.1    1s
H  678    69                      48.0000000   56.00000  16.7%  73.7    1s
H  795    65                      50.0000000   56.00000  12.0%  78.4    2s

Cutting planes:
  Gomory: 5
  Cover: 870
  Implied bound: 30
  Clique: 96
  MIR: 47
  StrongCG: 14
  GUB cover: 11
  Inf proof: 3
  Zero half: 7
  RLT: 5
  Relax-and-lift: 1
  BQP: 1

Explored 1236 nodes (119641 simplex iterations) in 3.83 seconds (3.57 work units)
Thread count was 1 (of 8 available processors)

Solution count 9: 50 48 47 ... 41

Optimal solution found (tolerance 1.00e-03)
Best objective 5.000000000000e+01, best bound 5.000000000000e+01, gap 0.0000%
